100 300
300 1490
500 4046
700 7564
900 12978
1100 19130
1300 26177
1500 36649
1700 45960
1900 57864
2100 68035
2300 84024
2500 98938
2700 111618
2900 132463
3100 158582
3300 168019
3500 196505
3700 215838
3900 239240
